*SENSE:Maximize
NAME          MODEL
ROWS
 N  OBJ
 E  C0000000
 E  C0000001
 E  C0000002
 E  C0000003
 E  C0000004
 E  C0000005
 E  C0000006
 E  C0000007
 E  C0000008
 E  C0000009
 E  C0000010
 E  C0000011
 E  C0000012
 E  C0000013
 E  C0000014
 E  C0000015
 E  C0000016
 E  C0000017
 E  C0000018
 E  C0000019
 E  C0000020
 E  C0000021
 E  C0000022
 E  C0000023
 L  C0000024
 L  C0000025
 L  C0000026
 L  C0000027
 L  C0000028
 L  C0000029
 L  C0000030
 L  C0000031
 L  C0000032
 L  C0000033
 L  C0000034
 L  C0000035
 L  C0000036
 L  C0000037
 L  C0000038
 L  C0000039
 L  C0000040
 L  C0000041
 L  C0000042
 L  C0000043
 L  C0000044
 L  C0000045
 E  C0000046
 E  C0000047
 E  C0000048
 E  C0000049
 L  C0000050
 L  C0000051
 L  C0000052
 L  C0000053
 L  C0000054
 L  C0000055
 L  C0000056
 L  C0000057
 L  C0000058
 L  C0000059
 L  C0000060
 L  C0000061
 L  C0000062
 L  C0000063
 L  C0000064
 L  C0000065
 L  C0000066
 L  C0000067
 L  C0000068
 L  C0000069
 L  C0000070
 L  C0000071
 L  C0000072
 L  C0000073
 L  C0000074
 L  C0000075
 L  C0000076
 L  C0000077
 L  C0000078
 L  C0000079
 L  C0000080
 L  C0000081
 L  C0000082
 L  C0000083
 L  C0000084
 L  C0000085
 L  C0000086
 L  C0000087
 L  C0000088
 L  C0000089
 L  C0000090
 L  C0000091
 L  C0000092
 L  C0000093
 L  C0000094
 L  C0000095
 L  C0000096
 L  C0000097
 L  C0000098
 L  C0000099
 L  C0000100
 L  C0000101
 L  C0000102
 L  C0000103
 L  C0000104
 L  C0000105
 L  C0000106
 L  C0000107
 L  C0000108
 L  C0000109
 L  C0000110
 L  C0000111
 L  C0000112
 L  C0000113
 L  C0000114
 L  C0000115
 L  C0000116
 L  C0000117
 L  C0000118
 L  C0000119
 L  C0000120
 L  C0000121
 L  C0000122
 L  C0000123
 L  C0000124
 L  C0000125
 L  C0000126
 L  C0000127
 L  C0000128
 L  C0000129
 L  C0000130
 L  C0000131
 L  C0000132
 L  C0000133
 L  C0000134
 L  C0000135
 L  C0000136
 L  C0000137
 L  C0000138
 L  C0000139
 L  C0000140
 L  C0000141
 L  C0000142
 L  C0000143
 L  C0000144
 L  C0000145
 L  C0000146
 L  C0000147
 L  C0000148
 L  C0000149
 L  C0000150
 L  C0000151
 L  C0000152
 L  C0000153
 L  C0000154
 L  C0000155
 L  C0000156
 L  C0000157
 L  C0000158
 L  C0000159
 L  C0000160
 L  C0000161
 L  C0000162
 L  C0000163
 L  C0000164
 L  C0000165
 L  C0000166
 L  C0000167
 L  C0000168
 L  C0000169
 L  C0000170
 L  C0000171
 L  C0000172
 L  C0000173
 L  C0000174
 L  C0000175
 L  C0000176
 L  C0000177
 L  C0000178
 L  C0000179
 L  C0000180
 L  C0000181
 L  C0000182
 L  C0000183
 L  C0000184
 L  C0000185
 L  C0000186
 L  C0000187
 L  C0000188
 L  C0000189
 L  C0000190
 L  C0000191
 L  C0000192
 L  C0000193
 L  C0000194
 L  C0000195
 L  C0000196
 L  C0000197
 L  C0000198
 L  C0000199
 L  C0000200
 L  C0000201
 L  C0000202
 L  C0000203
 L  C0000204
 L  C0000205
 L  C0000206
 L  C0000207
 L  C0000208
 L  C0000209
 L  C0000210
 L  C0000211
 L  C0000212
 L  C0000213
 L  C0000214
 L  C0000215
 L  C0000216
 L  C0000217
 L  C0000218
 L  C0000219
 L  C0000220
 L  C0000221
 L  C0000222
 L  C0000223
 L  C0000224
 L  C0000225
 L  C0000226
 L  C0000227
 L  C0000228
 L  C0000229
 L  C0000230
 L  C0000231
 L  C0000232
 L  C0000233
 L  C0000234
 L  C0000235
 L  C0000236
 L  C0000237
 L  C0000238
 L  C0000239
 L  C0000240
 L  C0000241
 L  C0000242
 L  C0000243
 L  C0000244
 L  C0000245
 L  C0000246
 L  C0000247
 L  C0000248
 L  C0000249
 L  C0000250
 L  C0000251
 L  C0000252
 L  C0000253
 L  C0000254
 L  C0000255
 L  C0000256
 L  C0000257
 L  C0000258
 L  C0000259
 L  C0000260
 L  C0000261
 L  C0000262
 L  C0000263
 L  C0000264
 L  C0000265
 L  C0000266
 L  C0000267
 L  C0000268
 L  C0000269
 L  C0000270
 L  C0000271
 L  C0000272
 L  C0000273
 L  C0000274
 L  C0000275
 L  C0000276
 L  C0000277
 L  C0000278
 L  C0000279
 L  C0000280
 L  C0000281
 L  C0000282
 L  C0000283
 L  C0000284
 L  C0000285
 L  C0000286
 L  C0000287
 L  C0000288
 L  C0000289
 L  C0000290
 L  C0000291
 L  C0000292
 L  C0000293
 L  C0000294
 L  C0000295
 L  C0000296
 L  C0000297
 L  C0000298
 L  C0000299
 L  C0000300
 L  C0000301
 L  C0000302
 L  C0000303
 L  C0000304
 L  C0000305
 L  C0000306
 L  C0000307
 L  C0000308
 L  C0000309
 L  C0000310
 L  C0000311
 L  C0000312
 L  C0000313
 L  C0000314
 L  C0000315
 L  C0000316
 L  C0000317
 L  C0000318
 L  C0000319
 L  C0000320
 L  C0000321
 L  C0000322
 L  C0000323
 L  C0000324
 L  C0000325
 L  C0000326
 L  C0000327
 L  C0000328
 L  C0000329
 L  C0000330
 L  C0000331
 L  C0000332
 L  C0000333
 L  C0000334
 L  C0000335
 L  C0000336
 L  C0000337
 L  C0000338
 L  C0000339
 L  C0000340
 L  C0000341
 L  C0000342
 L  C0000343
 L  C0000344
 L  C0000345
 L  C0000346
 L  C0000347
 L  C0000348
 L  C0000349
 L  C0000350
 L  C0000351
 L  C0000352
 L  C0000353
 L  C0000354
 L  C0000355
 L  C0000356
 L  C0000357
 L  C0000358
 L  C0000359
 L  C0000360
 L  C0000361
 L  C0000362
 L  C0000363
 L  C0000364
 L  C0000365
 L  C0000366
 L  C0000367
 L  C0000368
 L  C0000369
 L  C0000370
 L  C0000371
 L  C0000372
 L  C0000373
 L  C0000374
 L  C0000375
 L  C0000376
 L  C0000377
 L  C0000378
 L  C0000379
 L  C0000380
 L  C0000381
 L  C0000382
 L  C0000383
 L  C0000384
 L  C0000385
 L  C0000386
 L  C0000387
 L  C0000388
 L  C0000389
 L  C0000390
 L  C0000391
 L  C0000392
 L  C0000393
 L  C0000394
 L  C0000395
 L  C0000396
 L  C0000397
 L  C0000398
 L  C0000399
 L  C0000400
 L  C0000401
 L  C0000402
 L  C0000403
 L  C0000404
 L  C0000405
 L  C0000406
 L  C0000407
 L  C0000408
 L  C0000409
 L  C0000410
 L  C0000411
 L  C0000412
 L  C0000413
 L  C0000414
 L  C0000415
 L  C0000416
 L  C0000417
 L  C0000418
 L  C0000419
 L  C0000420
 L  C0000421
 L  C0000422
 L  C0000423
 L  C0000424
 L  C0000425
 L  C0000426
 L  C0000427
 L  C0000428
 L  C0000429
 L  C0000430
 L  C0000431
 L  C0000432
 L  C0000433
 L  C0000434
 L  C0000435
 L  C0000436
 L  C0000437
 L  C0000438
 L  C0000439
 L  C0000440
 L  C0000441
 L  C0000442
 L  C0000443
 L  C0000444
 L  C0000445
 L  C0000446
 L  C0000447
 L  C0000448
 L  C0000449
 L  C0000450
 L  C0000451
 L  C0000452
 L  C0000453
 L  C0000454
 L  C0000455
 L  C0000456
 L  C0000457
 L  C0000458
 L  C0000459
 L  C0000460
 L  C0000461
 L  C0000462
 L  C0000463
 L  C0000464
 L  C0000465
 L  C0000466
 L  C0000467
 L  C0000468
 L  C0000469
 L  C0000470
 L  C0000471
 L  C0000472
 L  C0000473
 L  C0000474
 L  C0000475
 L  C0000476
 L  C0000477
 L  C0000478
 L  C0000479
 L  C0000480
 L  C0000481
 L  C0000482
 L  C0000483
 L  C0000484
 L  C0000485
 L  C0000486
 L  C0000487
 L  C0000488
 L  C0000489
 L  C0000490
 L  C0000491
 L  C0000492
 L  C0000493
 L  C0000494
 L  C0000495
 L  C0000496
 L  C0000497
 L  C0000498
 L  C0000499
 L  C0000500
 L  C0000501
 L  C0000502
 L  C0000503
 L  C0000504
 L  C0000505
 L  C0000506
 L  C0000507
 L  C0000508
 L  C0000509
 L  C0000510
 L  C0000511
 L  C0000512
 L  C0000513
 L  C0000514
 L  C0000515
 L  C0000516
 L  C0000517
 L  C0000518
 L  C0000519
 L  C0000520
 L  C0000521
 L  C0000522
 L  C0000523
 L  C0000524
 L  C0000525
 L  C0000526
 L  C0000527
 L  C0000528
 L  C0000529
 L  C0000530
 L  C0000531
 L  C0000532
 L  C0000533
 L  C0000534
 L  C0000535
 L  C0000536
 L  C0000537
 L  C0000538
 L  C0000539
 L  C0000540
 L  C0000541
 L  C0000542
 L  C0000543
 L  C0000544
 L  C0000545
 L  C0000546
 L  C0000547
 L  C0000548
 L  C0000549
 L  C0000550
 L  C0000551
 L  C0000552
 L  C0000553
 L  C0000554
 L  C0000555
 L  C0000556
 L  C0000557
 L  C0000558
 L  C0000559
 L  C0000560
 L  C0000561
 L  C0000562
 L  C0000563
 L  C0000564
 L  C0000565
 L  C0000566
 L  C0000567
 L  C0000568
 L  C0000569
 L  C0000570
 L  C0000571
 L  C0000572
 L  C0000573
 L  C0000574
 L  C0000575
 L  C0000576
 L  C0000577
 L  C0000578
 L  C0000579
 L  C0000580
 L  C0000581
 L  C0000582
 L  C0000583
 L  C0000584
 L  C0000585
 L  C0000586
 L  C0000587
 L  C0000588
 L  C0000589
 L  C0000590
 L  C0000591
 L  C0000592
 L  C0000593
 L  C0000594
 L  C0000595
 L  C0000596
 L  C0000597
 L  C0000598
 L  C0000599
 L  C0000600
 L  C0000601
 L  C0000602
 L  C0000603
 L  C0000604
 L  C0000605
 L  C0000606
 L  C0000607
 L  C0000608
 L  C0000609
 L  C0000610
 L  C0000611
 L  C0000612
 L  C0000613
 L  C0000614
 L  C0000615
 L  C0000616
 L  C0000617
 L  C0000618
 L  C0000619
 L  C0000620
 L  C0000621
 L  C0000622
 L  C0000623
 L  C0000624
 L  C0000625
 L  C0000626
 L  C0000627
 L  C0000628
 L  C0000629
 L  C0000630
 L  C0000631
 L  C0000632
 L  C0000633
 L  C0000634
 L  C0000635
 L  C0000636
 L  C0000637
 L  C0000638
 L  C0000639
 L  C0000640
 L  C0000641
 L  C0000642
 L  C0000643
 L  C0000644
 L  C0000645
 L  C0000646
 L  C0000647
 L  C0000648
 L  C0000649
 L  C0000650
 L  C0000651
 L  C0000652
 L  C0000653
 L  C0000654
 L  C0000655
 L  C0000656
 L  C0000657
 L  C0000658
 L  C0000659
 L  C0000660
 L  C0000661
 L  C0000662
 L  C0000663
 L  C0000664
 L  C0000665
 L  C0000666
 L  C0000667
 L  C0000668
 L  C0000669
 L  C0000670
 L  C0000671
 L  C0000672
 L  C0000673
 L  C0000674
 L  C0000675
 L  C0000676
 L  C0000677
 L  C0000678
 L  C0000679
 L  C0000680
 L  C0000681
 L  C0000682
 L  C0000683
 L  C0000684
 L  C0000685
 L  C0000686
 L  C0000687
 L  C0000688
 L  C0000689
 L  C0000690
 L  C0000691
 L  C0000692
 L  C0000693
 L  C0000694
 L  C0000695
 L  C0000696
 L  C0000697
 L  C0000698
 L  C0000699
 L  C0000700
 L  C0000701
 L  C0000702
 L  C0000703
 L  C0000704
 L  C0000705
 L  C0000706
 L  C0000707
 L  C0000708
 L  C0000709
 L  C0000710
 L  C0000711
 L  C0000712
 L  C0000713
 L  C0000714
 L  C0000715
 L  C0000716
 L  C0000717
 L  C0000718
 L  C0000719
 L  C0000720
 L  C0000721
 L  C0000722
 L  C0000723
 L  C0000724
 L  C0000725
 L  C0000726
 L  C0000727
 L  C0000728
 L  C0000729
 L  C0000730
 L  C0000731
 L  C0000732
 L  C0000733
 L  C0000734
 L  C0000735
 L  C0000736
 L  C0000737
 L  C0000738
 L  C0000739
 L  C0000740
 L  C0000741
 L  C0000742
 L  C0000743
 L  C0000744
 L  C0000745
 L  C0000746
 L  C0000747
 L  C0000748
 L  C0000749
 L  C0000750
 L  C0000751
 L  C0000752
 L  C0000753
 L  C0000754
 L  C0000755
 L  C0000756
 L  C0000757
 L  C0000758
 L  C0000759
 L  C0000760
 L  C0000761
 L  C0000762
 L  C0000763
 L  C0000764
 L  C0000765
 L  C0000766
 L  C0000767
 L  C0000768
 L  C0000769
 L  C0000770
 L  C0000771
 L  C0000772
 L  C0000773
 L  C0000774
 L  C0000775
 L  C0000776
 L  C0000777
 L  C0000778
 L  C0000779
 L  C0000780
 L  C0000781
 L  C0000782
 L  C0000783
 L  C0000784
 L  C0000785
 L  C0000786
 L  C0000787
 L  C0000788
 L  C0000789
 L  C0000790
 L  C0000791
 L  C0000792
 L  C0000793
 L  C0000794
 L  C0000795
 L  C0000796
 L  C0000797
 L  C0000798
 L  C0000799
 L  C0000800
 L  C0000801
 L  C0000802
 L  C0000803
 L  C0000804
 L  C0000805
 L  C0000806
 L  C0000807
 L  C0000808
 L  C0000809
 L  C0000810
 L  C0000811
 L  C0000812
 L  C0000813
 L  C0000814
 L  C0000815
 L  C0000816
 L  C0000817
 L  C0000818
 L  C0000819
 L  C0000820
 L  C0000821
 L  C0000822
 L  C0000823
 L  C0000824
 L  C0000825
 L  C0000826
 L  C0000827
 L  C0000828
 L  C0000829
 L  C0000830
 L  C0000831
 L  C0000832
 L  C0000833
 L  C0000834
 L  C0000835
 L  C0000836
 L  C0000837
 L  C0000838
 L  C0000839
 L  C0000840
 L  C0000841
 L  C0000842
 L  C0000843
 L  C0000844
 L  C0000845
 L  C0000846
 L  C0000847
 L  C0000848
 L  C0000849
 L  C0000850
 L  C0000851
 L  C0000852
 L  C0000853
 L  C0000854
 L  C0000855
 L  C0000856
 L  C0000857
 L  C0000858
 L  C0000859
 L  C0000860
 L  C0000861
 L  C0000862
 L  C0000863
 L  C0000864
 L  C0000865
 L  C0000866
 L  C0000867
 L  C0000868
 L  C0000869
 L  C0000870
 L  C0000871
 L  C0000872
 L  C0000873
 L  C0000874
 L  C0000875
 L  C0000876
 L  C0000877
 L  C0000878
 L  C0000879
 L  C0000880
 L  C0000881
 L  C0000882
 L  C0000883
 L  C0000884
 L  C0000885
 L  C0000886
 L  C0000887
 L  C0000888
 L  C0000889
 L  C0000890
 L  C0000891
 L  C0000892
 L  C0000893
 L  C0000894
 L  C0000895
 L  C0000896
 L  C0000897
 L  C0000898
 L  C0000899
 L  C0000900
 L  C0000901
 L  C0000902
 L  C0000903
 L  C0000904
 L  C0000905
 L  C0000906
 L  C0000907
 L  C0000908
 L  C0000909
 L  C0000910
 L  C0000911
 L  C0000912
 L  C0000913
 L  C0000914
 L  C0000915
 L  C0000916
 L  C0000917
 L  C0000918
 L  C0000919
 L  C0000920
 L  C0000921
 L  C0000922
 L  C0000923
 L  C0000924
 L  C0000925
 L  C0000926
 L  C0000927
 L  C0000928
 L  C0000929
 L  C0000930
 L  C0000931
 L  C0000932
 L  C0000933
 L  C0000934
 L  C0000935
 L  C0000936
 L  C0000937
 L  C0000938
 L  C0000939
 L  C0000940
 L  C0000941
 L  C0000942
 L  C0000943
 L  C0000944
 L  C0000945
 L  C0000946
 L  C0000947
 L  C0000948
 L  C0000949
 L  C0000950
 L  C0000951
 L  C0000952
 L  C0000953
 L  C0000954
 L  C0000955
 L  C0000956
 L  C0000957
 L  C0000958
 L  C0000959
 L  C0000960
 L  C0000961
 L  C0000962
 L  C0000963
 L  C0000964
 L  C0000965
 L  C0000966
 L  C0000967
 L  C0000968
 L  C0000969
 L  C0000970
 L  C0000971
 L  C0000972
 L  C0000973
 L  C0000974
 L  C0000975
 L  C0000976
 L  C0000977
 L  C0000978
 L  C0000979
 L  C0000980
 L  C0000981
 L  C0000982
 L  C0000983
 L  C0000984
 L  C0000985
 L  C0000986
 L  C0000987
 L  C0000988
 L  C0000989
 L  C0000990
 L  C0000991
 L  C0000992
 L  C0000993
 L  C0000994
 L  C0000995
 L  C0000996
 L  C0000997
 L  C0000998
 L  C0000999
 L  C0001000
 L  C0001001
 L  C0001002
 L  C0001003
 L  C0001004
 L  C0001005
 L  C0001006
 L  C0001007
 L  C0001008
 L  C0001009
 L  C0001010
 L  C0001011
 L  C0001012
 L  C0001013
 L  C0001014
 L  C0001015
 L  C0001016
 L  C0001017
 L  C0001018
 L  C0001019
 L  C0001020
 L  C0001021
 L  C0001022
 L  C0001023
 L  C0001024
 L  C0001025
 L  C0001026
 L  C0001027
 L  C0001028
 L  C0001029
 L  C0001030
 L  C0001031
 L  C0001032
 L  C0001033
 L  C0001034
 L  C0001035
 L  C0001036
 L  C0001037
 L  C0001038
 L  C0001039
 L  C0001040
 L  C0001041
 L  C0001042
 L  C0001043
 L  C0001044
 L  C0001045
 L  C0001046
 L  C0001047
 L  C0001048
 L  C0001049
 L  C0001050
 L  C0001051
 L  C0001052
 L  C0001053
 L  C0001054
 L  C0001055
 L  C0001056
 L  C0001057
 L  C0001058
 L  C0001059
 L  C0001060
 L  C0001061
 L  C0001062
 L  C0001063
 L  C0001064
 L  C0001065
 L  C0001066
 L  C0001067
 L  C0001068
 L  C0001069
 L  C0001070
 L  C0001071
 L  C0001072
 L  C0001073
 L  C0001074
 L  C0001075
 L  C0001076
 L  C0001077
 L  C0001078
 L  C0001079
 L  C0001080
 L  C0001081
 L  C0001082
 L  C0001083
 L  C0001084
 L  C0001085
 L  C0001086
 L  C0001087
 L  C0001088
 L  C0001089
 L  C0001090
 L  C0001091
 L  C0001092
 L  C0001093
 L  C0001094
 L  C0001095
 L  C0001096
 L  C0001097
 L  C0001098
 L  C0001099
 L  C0001100
 L  C0001101
 L  C0001102
 L  C0001103
 L  C0001104
 L  C0001105
 L  C0001106
 L  C0001107
 L  C0001108
 L  C0001109
 L  C0001110
 L  C0001111
 L  C0001112
 L  C0001113
 L  C0001114
 L  C0001115
 L  C0001116
 L  C0001117
 L  C0001118
 L  C0001119
 L  C0001120
 L  C0001121
 L  C0001122
 L  C0001123
 L  C0001124
 L  C0001125
 L  C0001126
 L  C0001127
 L  C0001128
 L  C0001129
 L  C0001130
 L  C0001131
 L  C0001132
 L  C0001133
 L  C0001134
 L  C0001135
 L  C0001136
 L  C0001137
 L  C0001138
 L  C0001139
 L  C0001140
 L  C0001141
 L  C0001142
 L  C0001143
 L  C0001144
 L  C0001145
 L  C0001146
 L  C0001147
 L  C0001148
 L  C0001149
 L  C0001150
 L  C0001151
 L  C0001152
 L  C0001153
 L  C0001154
 L  C0001155
 L  C0001156
 L  C0001157
 L  C0001158
 L  C0001159
 L  C0001160
 L  C0001161
 L  C0001162
 L  C0001163
 L  C0001164
 L  C0001165
 L  C0001166
 L  C0001167
 L  C0001168
 L  C0001169
 L  C0001170
 L  C0001171
 L  C0001172
 L  C0001173
 L  C0001174
 L  C0001175
 L  C0001176
 L  C0001177
 L  C0001178
 L  C0001179
 L  C0001180
 L  C0001181
 L  C0001182
 L  C0001183
 L  C0001184
 L  C0001185
 L  C0001186
 L  C0001187
 L  C0001188
 L  C0001189
 L  C0001190
 L  C0001191
 L  C0001192
 L  C0001193
 L  C0001194
 L  C0001195
 L  C0001196
 L  C0001197
 L  C0001198
 L  C0001199
 L  C0001200
 L  C0001201
 L  C0001202
 L  C0001203
 L  C0001204
 L  C0001205
 L  C0001206
 L  C0001207
 L  C0001208
 L  C0001209
 L  C0001210
 L  C0001211
 L  C0001212
 L  C0001213
 L  C0001214
 L  C0001215
 L  C0001216
 L  C0001217
 L  C0001218
 L  C0001219
 L  C0001220
 L  C0001221
 L  C0001222
 L  C0001223
 L  C0001224
 L  C0001225
 L  C0001226
 L  C0001227
 L  C0001228
 L  C0001229
 L  C0001230
 L  C0001231
 L  C0001232
 L  C0001233
 L  C0001234
 L  C0001235
 L  C0001236
 L  C0001237
 L  C0001238
 L  C0001239
 L  C0001240
 L  C0001241
 L  C0001242
 L  C0001243
 L  C0001244
 L  C0001245
 L  C0001246
 L  C0001247
 L  C0001248
 L  C0001249
 L  C0001250
 L  C0001251
 L  C0001252
 L  C0001253
 L  C0001254
 L  C0001255
 L  C0001256
 L  C0001257
 L  C0001258
 L  C0001259
 L  C0001260
 L  C0001261
 L  C0001262
 L  C0001263
 L  C0001264
 L  C0001265
 L  C0001266
 L  C0001267
 L  C0001268
 L  C0001269
 L  C0001270
 L  C0001271
 L  C0001272
 L  C0001273
 L  C0001274
 L  C0001275
 L  C0001276
 L  C0001277
 L  C0001278
 L  C0001279
 L  C0001280
 L  C0001281
 L  C0001282
 L  C0001283
 L  C0001284
 L  C0001285
 L  C0001286
 L  C0001287
 L  C0001288
 L  C0001289
 L  C0001290
 L  C0001291
 L  C0001292
 L  C0001293
 L  C0001294
 L  C0001295
 L  C0001296
 L  C0001297
 L  C0001298
 L  C0001299
 L  C0001300
 L  C0001301
 L  C0001302
 L  C0001303
 L  C0001304
 L  C0001305
 L  C0001306
 L  C0001307
 L  C0001308
 L  C0001309
 L  C0001310
 L  C0001311
 L  C0001312
 L  C0001313
 L  C0001314
 L  C0001315
 L  C0001316
 L  C0001317
 L  C0001318
 L  C0001319
 L  C0001320
 L  C0001321
 L  C0001322
 L  C0001323
 L  C0001324
 L  C0001325
 L  C0001326
 L  C0001327
 L  C0001328
 L  C0001329
 L  C0001330
 L  C0001331
 L  C0001332
 L  C0001333
 L  C0001334
 L  C0001335
 L  C0001336
 L  C0001337
 L  C0001338
 L  C0001339
 L  C0001340
 L  C0001341
 L  C0001342
 L  C0001343
 L  C0001344
 L  C0001345
 L  C0001346
 L  C0001347
 L  C0001348
 L  C0001349
 L  C0001350
 L  C0001351
 L  C0001352
 L  C0001353
 L  C0001354
 L  C0001355
 L  C0001356
 L  C0001357
 L  C0001358
 L  C0001359
 L  C0001360
 L  C0001361
 L  C0001362
 L  C0001363
 L  C0001364
 L  C0001365
 L  C0001366
 L  C0001367
 L  C0001368
 L  C0001369
 L  C0001370
 L  C0001371
 L  C0001372
 L  C0001373
 L  C0001374
 L  C0001375
 L  C0001376
 L  C0001377
 L  C0001378
 L  C0001379
 L  C0001380
 L  C0001381
 L  C0001382
 L  C0001383
 L  C0001384
 L  C0001385
 L  C0001386
 L  C0001387
 L  C0001388
 L  C0001389
 L  C0001390
 L  C0001391
 L  C0001392
 L  C0001393
 L  C0001394
 L  C0001395
 L  C0001396
 L  C0001397
 L  C0001398
 L  C0001399
 L  C0001400
 L  C0001401
 L  C0001402
 L  C0001403
 L  C0001404
 L  C0001405
 L  C0001406
 L  C0001407
 L  C0001408
 L  C0001409
 L  C0001410
 L  C0001411
 L  C0001412
 L  C0001413
 L  C0001414
 L  C0001415
 L  C0001416
 L  C0001417
 L  C0001418
 L  C0001419
 L  C0001420
 L  C0001421
 L  C0001422
 L  C0001423
 L  C0001424
 L  C0001425
 L  C0001426
 L  C0001427
 L  C0001428
 L  C0001429
 L  C0001430
 L  C0001431
 L  C0001432
 L  C0001433
 L  C0001434
 L  C0001435
 L  C0001436
 L  C0001437
 L  C0001438
 L  C0001439
 L  C0001440
 L  C0001441
 L  C0001442
 L  C0001443
 L  C0001444
 L  C0001445
 L  C0001446
 L  C0001447
 L  C0001448
 L  C0001449
 L  C0001450
 L  C0001451
 L  C0001452
 L  C0001453
 L  C0001454
 L  C0001455
 L  C0001456
 L  C0001457
 L  C0001458
 L  C0001459
 L  C0001460
 L  C0001461
 L  C0001462
 L  C0001463
 L  C0001464
 L  C0001465
 L  C0001466
 L  C0001467
 L  C0001468
 L  C0001469
 L  C0001470
 L  C0001471
 L  C0001472
 L  C0001473
 L  C0001474
 L  C0001475
 L  C0001476
 L  C0001477
 L  C0001478
 L  C0001479
 L  C0001480
 L  C0001481
 L  C0001482
 L  C0001483
 L  C0001484
 L  C0001485
 L  C0001486
 L  C0001487
 L  C0001488
 L  C0001489
 L  C0001490
 L  C0001491
 L  C0001492
 L  C0001493
 L  C0001494
 L  C0001495
 L  C0001496
 L  C0001497
 L  C0001498
 L  C0001499
 L  C0001500
 L  C0001501
 L  C0001502
 L  C0001503
 L  C0001504
 L  C0001505
 L  C0001506
 L  C0001507
 L  C0001508
 L  C0001509
 L  C0001510
 L  C0001511
 L  C0001512
 L  C0001513
 L  C0001514
 L  C0001515
 L  C0001516
 L  C0001517
 L  C0001518
 L  C0001519
 L  C0001520
 L  C0001521
 L  C0001522
 L  C0001523
 L  C0001524
 L  C0001525
 L  C0001526
 L  C0001527
 L  C0001528
 L  C0001529
 L  C0001530
 L  C0001531
 L  C0001532
 L  C0001533
 L  C0001534
 L  C0001535
 L  C0001536
 L  C0001537
 L  C0001538
 L  C0001539
 L  C0001540
 L  C0001541
 L  C0001542
 L  C0001543
 L  C0001544
 L  C0001545
 L  C0001546
 L  C0001547
 L  C0001548
 L  C0001549
 L  C0001550
 L  C0001551
 L  C0001552
 L  C0001553
 L  C0001554
 L  C0001555
 L  C0001556
 L  C0001557
 L  C0001558
 L  C0001559
 L  C0001560
 L  C0001561
 L  C0001562
 L  C0001563
 L  C0001564
 L  C0001565
 L  C0001566
 L  C0001567
 L  C0001568
 L  C0001569
 L  C0001570
 L  C0001571
 L  C0001572
 L  C0001573
 L  C0001574
 L  C0001575
 L  C0001576
 L  C0001577
 L  C0001578
 L  C0001579
 L  C0001580
 L  C0001581
 L  C0001582
 L  C0001583
 L  C0001584
 L  C0001585
 L  C0001586
 L  C0001587
 L  C0001588
 L  C0001589
 L  C0001590
 L  C0001591
 L  C0001592
 L  C0001593
 L  C0001594
 L  C0001595
 L  C0001596
 L  C0001597
 L  C0001598
 L  C0001599
 L  C0001600
 L  C0001601
 L  C0001602
 L  C0001603
 L  C0001604
 L  C0001605
 L  C0001606
 L  C0001607
 L  C0001608
 L  C0001609
 L  C0001610
 L  C0001611
 L  C0001612
 L  C0001613
 L  C0001614
 L  C0001615
 L  C0001616
 L  C0001617
 L  C0001618
 L  C0001619
 L  C0001620
 L  C0001621
 L  C0001622
 L  C0001623
 L  C0001624
 L  C0001625
 L  C0001626
 L  C0001627
 L  C0001628
 L  C0001629
 L  C0001630
 L  C0001631
 L  C0001632
 L  C0001633
 L  C0001634
 L  C0001635
 L  C0001636
 L  C0001637
 L  C0001638
 L  C0001639
 L  C0001640
 L  C0001641
 L  C0001642
 L  C0001643
 L  C0001644
 L  C0001645
 L  C0001646
 L  C0001647
 L  C0001648
 L  C0001649
 L  C0001650
 L  C0001651
 L  C0001652
 L  C0001653
 L  C0001654
 L  C0001655
 L  C0001656
 L  C0001657
 L  C0001658
 L  C0001659
 L  C0001660
 L  C0001661
 L  C0001662
 L  C0001663
 L  C0001664
 L  C0001665
 L  C0001666
 L  C0001667
 L  C0001668
 L  C0001669
 L  C0001670
 L  C0001671
 L  C0001672
 L  C0001673
 L  C0001674
 L  C0001675
 L  C0001676
 L  C0001677
 L  C0001678
 L  C0001679
 L  C0001680
 L  C0001681
 L  C0001682
 L  C0001683
 L  C0001684
 L  C0001685
 L  C0001686
 L  C0001687
 L  C0001688
 L  C0001689
 L  C0001690
 L  C0001691
 L  C0001692
 L  C0001693
 L  C0001694
 L  C0001695
 L  C0001696
 L  C0001697
 L  C0001698
 L  C0001699
 L  C0001700
 L  C0001701
 L  C0001702
 L  C0001703
 L  C0001704
 L  C0001705
 L  C0001706
 L  C0001707
 L  C0001708
 L  C0001709
 L  C0001710
 L  C0001711
 L  C0001712
 L  C0001713
 L  C0001714
 L  C0001715
 L  C0001716
 L  C0001717
 L  C0001718
 L  C0001719
 L  C0001720
 L  C0001721
 L  C0001722
 L  C0001723
 L  C0001724
 L  C0001725
 L  C0001726
 L  C0001727
 L  C0001728
 L  C0001729
 L  C0001730
 L  C0001731
 L  C0001732
 L  C0001733
 L  C0001734
 L  C0001735
 L  C0001736
 L  C0001737
 L  C0001738
 L  C0001739
 L  C0001740
 L  C0001741
 L  C0001742
 L  C0001743
 L  C0001744
 L  C0001745
 L  C0001746
 L  C0001747
 L  C0001748
 L  C0001749
 L  C0001750
 L  C0001751
 L  C0001752
 L  C0001753
